15
1 0 12
2 0 9
2 1 3
3 0 4
3 1 11
3 2 10
4 0 9
4 1 7
4 2 1
4 3 11
5 0 11
5 1 8
5 2 10
5 3 11
5 4 9
6 0 3
6 1 9
6 2 1
6 3 12
6 4 10
6 5 3
7 0 8
7 1 9
7 2 9
7 3 8
7 4 4
7 5 11
7 6 1
8 0 4
8 1 6
8 2 5
8 3 3
8 4 6
8 5 12
8 6 2
8 7 9
9 0 3
9 1 1
9 2 1
9 3 4
9 4 1
9 5 3
9 6 11
9 7 8
9 8 8
10 0 6
10 1 2
10 2 9
10 3 11
10 4 6
10 5 7
10 6 2
10 7 12
10 8 7
10 9 8
11 0 1
11 1 7
11 2 4
11 3 1
11 4 11
11 5 11
11 6 2
11 7 8
11 8 9
11 9 10
11 10 11
12 0 6
12 1 3
12 2 3
12 3 4
12 4 5
12 5 5
12 6 3
12 7 1
12 8 5
12 9 12
12 10 4
12 11 2
13 0 4
13 1 3
13 2 9
13 3 1
13 4 5
13 5 4
13 6 11
13 7 11
13 8 7
13 9 6
13 10 6
13 11 7
13 12 4
14 0 7
14 1 3
14 2 8
14 3 3
14 4 5
14 5 9
14 6 2
14 7 6
14 8 6
14 9 7
14 10 4
14 11 9
14 12 1
14 13 2
